Data path: /scratch/opt/lxu/CFLG/benchmarks/Kgroup_B
Instance: K400.red
Result path: /scratch/opt/lxu/CFLG/results/Kgroup_B
Solver: Gurobi
Time limit: 7200
Formulation: LEFPAD
Cover: Small
julia --project=. src/main.jl /scratch/opt/lxu/CFLG/benchmarks/Kgroup_B K400.red /scratch/opt/lxu/CFLG/results/Kgroup_B Gurobi 7200 LEFPAD Small
The latest version of Julia in the `release` channel is 1.11.5+0.x64.linux.gnu. You currently have `1.11.4+0.x64.linux.gnu` installed. Run:

  juliaup update

in your terminal shell to install Julia 1.11.5+0.x64.linux.gnu and update the `release` channel to that version.
/scratch/opt/lxu/CFLG/benchmarks/Kgroup_B Gurobi 7200.0 /scratch/opt/lxu/CFLG/results/Kgroup_B K400.red LEFPAD Small
/scratch/opt/lxu/CFLG/benchmarks/Kgroup_B/K400.red

 read graph
data loaded


after absorb:231 231

max_piece:20
problem_graph/original graph: node: 322/231 edge: 1005/914 dlt: 0.05018066207441731 break_avg_len: 0.18254776173539236 break_max_len: 1.0Vbar/V, Ebar/E(322, 322, 1005, 1005)
Set parameter TokenServer to value "solice01.zib.de"
Set parameter Threads to value 1
Set parameter OutputFlag to value 1
Gurobi Optimizer version 12.0.1 build v12.0.1rc0 (linux64 - "Debian GNU/Linux 12 (bookworm)")

CPU model: Intel(R) Xeon(R) Gold 5122 CPU @ 3.60GHz, instruction set [SSE2|AVX|AVX2|AVX512]
Thread count: 8 physical cores, 16 logical processors, using up to 1 threads

Non-default parameters:
Threads  1

Optimize a model with 1327 rows, 3015 columns and 5025 nonzeros
Model fingerprint: 0x28a3178c
Coefficient statistics:
  Matrix range     [1e+00, 1e+00]
  Objective range  [1e+00, 1e+00]
  Bounds range     [1e+00, 1e+00]
  RHS range        [0e+00, 0e+00]
Presolve removed 1327 rows and 3015 columns
Presolve time: 0.00s
Presolve: All rows and columns removed
Iteration    Objective       Primal Inf.    Dual Inf.      Time
       0   -0.0000000e+00   0.000000e+00   0.000000e+00      0s

Solved in 0 iterations and 0.00 seconds (0.00 work units)
Optimal objective -0.000000000e+00

User-callback calls 35, time in user-callback 0.00 sec
elapsed CPU time: 1.189075 seconds
Set parameter TokenServer to value "solice01.zib.de"
Set parameter Threads to value 1
Set parameter OutputFlag to value 1
Set parameter MIPGap to value 0.0001
Set parameter MIPGapAbs to value 0.999998
Set parameter TimeLimit to value 7198.810925

 more cuts: false 0.05018066207441731 false
is_attach:trueformulation:LEFPAD0 1005 0

 model loaded

Gurobi Optimizer version 12.0.1 build v12.0.1rc0 (linux64 - "Debian GNU/Linux 12 (bookworm)")

CPU model: Intel(R) Xeon(R) Gold 5122 CPU @ 3.60GHz, instruction set [SSE2|AVX|AVX2|AVX512]
Thread count: 8 physical cores, 16 logical processors, using up to 1 threads

Non-default parameters:
TimeLimit  7198.810925
MIPGapAbs  0.999998
Threads  1

Optimize a model with 18906 rows, 14470 columns and 52415 nonzeros
Model fingerprint: 0xf0b7b968
Variable types: 7074 continuous, 7396 integer (7396 binary)
Coefficient statistics:
  Matrix range     [5e-08, 1e+00]
  Objective range  [1e+00, 1e+00]
  Bounds range     [1e-03, 1e+00]
  RHS range        [1e-03, 1e+00]
Found heuristic solution: objective 997.0000000
Presolve removed 10419 rows and 4229 columns
Presolve time: 0.11s
Presolved: 8487 rows, 10241 columns, 31937 nonzeros
Variable types: 5494 continuous, 4747 integer (4747 binary)

Root relaxation: objective 7.880000e+02, 3920 iterations, 0.04 seconds (0.04 work units)

    Nodes    |    Current Node    |     Objective Bounds      |     Work
 Expl Unexpl |  Obj  Depth IntInf | Incumbent    BestBd   Gap | It/Node Time

     0     0  788.00000    0   13  997.00000  788.00000  21.0%     -    0s
H    0     0                     989.0000000  788.00000  20.3%     -    0s
H    0     0                     976.0000000  788.00000  19.3%     -    0s
H    0     0                     935.0000000  788.00000  15.7%     -    0s
     0     0  788.00000    0   10  935.00000  788.00000  15.7%     -    0s
H    0     0                     788.0000000  788.00000  0.00%     -    0s
     0     0  788.00000    0   10  788.00000  788.00000  0.00%     -    0s

Cutting planes:
  Gomory: 1
  Cover: 1
  MIR: 3
  Flow cover: 2

Explored 1 nodes (4804 simplex iterations) in 0.31 seconds (0.23 work units)
Thread count was 1 (of 16 available processors)

Solution count 6: 788 788 935 ... 997

Optimal solution found (tolerance 1.00e-04)
Best objective 7.880000000000e+02, best bound 7.880000000000e+02, gap 0.0000%

User-callback calls 449, time in user-callback 0.00 sec

 sepatime0 0 0
788.0Stat(MathOptInterface.OPTIMAL, 788.0, 788.0, 0.0, 0.0, 1.189075, 0.31331801414489746, 1, Main.CFLG.LEFPAD, "", #undef)
